%%% static parameters %%%
timespan = 1;
Fact = [2];
Distr1 = [5];
Distr2 = [10];
Clients_N = [100];
Demand_W = [15];
Lt0 = [4];
Lt1 = [4];
SS_ = [0.85];
DS_D = [8];
K = [200];
MA = [500];
%%% dynamic parameters %%%
lost_ratio_sales_ret_th = 0.18774695262623775;
lost_ratio_sales_ret_w = 30;
lost_ratio_sales_dis_th = 0.5941115040979789;
lost_ratio_sales_dis_w = 9;
lost_ratio_sales_fac_th = 0.798729104011096;
lost_ratio_sales_fac_w = 17;
stock_customer_MA_mean_relative_th = 0.4112490432615914;
stock_customer_MA_mean_relative_w = 96;
stock_distributor_MA_mean_relative_th = 0.40033137134539376;
stock_distributor_MA_mean_relative_w = 72;
stock_retailer_MA_mean_relative_th = 0.060274614309617336;
stock_retailer_MA_mean_relative_w = 79;
stock_factory_MA_mean_relative_th = 0.5046123107251146;
stock_factory_MA_mean_relative_w = 89;
